33D32945 STP File, STP Format Version 1.0

SECTION Comment
Name "grid_25"
END

SECTION Graph
Nodes 25
Edges 40
E 23 24 1
E 13 7 5
E 11 18 6
E 11 6 4
E 21 22 1
E 10 5 15
E 14 15 11
E 10 11 12
E 12 16 11
E 18 19 19
E 15 23 18
E 13 21 15
E 19 20 15
E 24 25 1
E 22 23 9
E 10 17 13
E 20 25 1
E 1 2 8
E 1 3 13
E 12 19 3
E 2 4 4
E 2 5 16
E 3 4 20
E 3 7 19
E 4 6 9
E 15 16 1
E 5 6 5
E 13 14 17
E 4 8 4
E 11 12 20
E 15 9 14
E 6 9 13
E 7 8 19
E 14 8 14
E 8 9 11
E 12 9 10
E 17 18 19
E 16 20 12
E 14 22 7
E 16 24 6
END

SECTION Terminals
Terminals 6
T 1
T 9
T 11
T 17
T 23
T 25
END

EOF
